\ LP format - for model browsing. Use MPS format to capture full model detail.
Minimize
  0 s_b_1_1_1_t_0 + a_b_1_1_1_t_0 + 0 s_b_1_1_1_t_1 + a_b_1_1_1_t_1
   + 0 s_b_1_1_1_t_2 + a_b_1_1_1_t_2 + 0 s_b_1_1_1_t_3 + a_b_1_1_1_t_3
   + 0 s_b_1_1_1_t_4 + a_b_1_1_1_t_4 + 0 s_b_1_1_1_t_5 + a_b_1_1_1_t_5
   + 0 s_b_1_1_1_t_6 + a_b_1_1_1_t_6 + 0 s_b_1_1_1_t_7 + a_b_1_1_1_t_7
   + 0 s_b_1_1_1_t_8 + a_b_1_1_1_t_8 + 0 s_b_1_1_1_t_9 + a_b_1_1_1_t_9
   + 0 s_b_1_1_1_t_10 + a_b_1_1_1_t_10 + 0 s_b_1_1_1_t_11 + a_b_1_1_1_t_11
   + 0 s_b_1_1_1_t_12 + a_b_1_1_1_t_12 + 0 s_b_1_1_1_t_13 + a_b_1_1_1_t_13
   + 0 s_b_1_1_1_t_14 + a_b_1_1_1_t_14 + 0 s_b_1_1_1_t_15 + a_b_1_1_1_t_15
   + 0 s_b_1_2_1_t_0 + a_b_1_2_1_t_0 + 0 s_b_1_2_1_t_1 + a_b_1_2_1_t_1
   + 0 s_b_1_2_1_t_2 + a_b_1_2_1_t_2 + 0 s_b_1_2_1_t_3 + a_b_1_2_1_t_3
   + 0 s_b_1_2_1_t_4 + a_b_1_2_1_t_4 + 0 s_b_1_2_1_t_5 + a_b_1_2_1_t_5
   + 0 s_b_1_2_1_t_6 + a_b_1_2_1_t_6 + 0 s_b_1_2_1_t_7 + a_b_1_2_1_t_7
   + 0 s_b_1_2_1_t_8 + a_b_1_2_1_t_8 + 0 s_b_1_2_1_t_9 + a_b_1_2_1_t_9
   + 0 s_b_1_2_1_t_10 + a_b_1_2_1_t_10 + 0 s_b_1_2_1_t_11 + a_b_1_2_1_t_11
   + 0 s_b_1_2_1_t_12 + a_b_1_2_1_t_12 + 0 s_b_1_2_1_t_13 + a_b_1_2_1_t_13
   + 0 s_b_1_2_1_t_14 + a_b_1_2_1_t_14 + 0 s_b_1_2_1_t_15 + a_b_1_2_1_t_15
Subject To
 R0: x[0]_0 = 0
 R1: x[1]_0 = 0
 R2: - x[0]_0 - x[1]_0 + x[0]_1 = 0
 R3: - x[1]_0 + x[1]_1 - u[0]_0 = 0
 R4: - x[0]_1 - x[1]_1 + x[0]_2 = 0
 R5: - x[1]_1 + x[1]_2 - u[0]_1 = 0
 R6: - x[0]_2 - x[1]_2 + x[0]_3 = 0
 R7: - x[1]_2 + x[1]_3 - u[0]_2 = 0
 R8: - x[0]_3 - x[1]_3 + x[0]_4 = 0
 R9: - x[1]_3 + x[1]_4 - u[0]_3 = 0
 R10: - x[0]_4 - x[1]_4 + x[0]_5 = 0
 R11: - x[1]_4 + x[1]_5 - u[0]_4 = 0
 R12: - x[0]_5 - x[1]_5 + x[0]_6 = 0
 R13: - x[1]_5 + x[1]_6 - u[0]_5 = 0
 R14: - x[0]_6 - x[1]_6 + x[0]_7 = 0
 R15: - x[1]_6 + x[1]_7 - u[0]_6 = 0
 R16: - x[0]_7 - x[1]_7 + x[0]_8 = 0
 R17: - x[1]_7 + x[1]_8 - u[0]_7 = 0
 R18: - x[0]_8 - x[1]_8 + x[0]_9 = 0
 R19: - x[1]_8 + x[1]_9 - u[0]_8 = 0
 R20: - x[0]_9 - x[1]_9 + x[0]_10 = 0
 R21: - x[1]_9 + x[1]_10 - u[0]_9 = 0
 R22: - x[0]_10 - x[1]_10 + x[0]_11 = 0
 R23: - x[1]_10 + x[1]_11 - u[0]_10 = 0
 R24: - x[0]_11 - x[1]_11 + x[0]_12 = 0
 R25: - x[1]_11 + x[1]_12 - u[0]_11 = 0
 R26: - x[0]_12 - x[1]_12 + x[0]_13 = 0
 R27: - x[1]_12 + x[1]_13 - u[0]_12 = 0
 R28: - x[0]_13 - x[1]_13 + x[0]_14 = 0
 R29: - x[1]_13 + x[1]_14 - u[0]_13 = 0
 R30: - x[0]_14 - x[1]_14 + x[0]_15 = 0
 R31: - x[1]_14 + x[1]_15 - u[0]_14 = 0
 b_assign: b_1_2_1_t_2 = 1
 b_assign: b_1_2_1_t_0 = 1
 b_assign: b_1_2_1_t_3 = 1
 b_assign: b_1_1_1_t_6 = 1
 b_assign: b_1_1_1_t_1 = 0
 b_assign: b_1_1_1_t_5 = 1
 b_assign: b_1_1_1_t_2 = 0
 b_assign: b_1_1_1_t_10 = 0
 b_assign: b_1_1_1_t_11 = 0
 b_assign: b_1_2_1_t_4 = 0
 b_assign: b_1_2_1_t_7 = 0
 b_assign: b_1_1_1_t_14 = 1
 b_assign: b_1_2_1_t_9 = 1
 b_assign: b_1_2_1_t_12 = 0
 b_assign: b_1_2_1_t_8 = 0
 b_assign: b_1_1_1_t_13 = 1
 b_assign: b_1_2_1_t_11 = 1
 b_assign: b_1_2_1_t_13 = 0
 b_assign: b_1_1_1_t_4 = 0
 b_assign: b_1_1_1_t_12 = 0
 b_assign: b_1_2_1_t_5 = 0
 b_assign: b_1_2_1_t_1 = 1
 b_assign: b_1_1_1_t_3 = 0
 b_assign: b_1_1_1_t_0 = 0
 b_assign: b_1_2_1_t_15 = 0
 b_assign: b_1_1_1_t_7 = 1
 b_assign: b_1_2_1_t_10 = 1
 b_assign: b_1_2_1_t_14 = 0
 b_assign: b_1_2_1_t_6 = 0
 b_assign: b_1_1_1_t_9 = 0
 b_assign: b_1_1_1_t_8 = 0
 b_assign: b_1_1_1_t_15 = 1
 GC16: b_1_1_1_t_0 = 1 -> - x[0]_0 - s_b_1_1_1_t_0 <= -3
 GC17: b_1_1_1_t_0 = 0 -> - x[0]_0 - s_b_1_1_1_t_0 >= -2.9999
 GC18: b_1_1_1_t_1 = 1 -> - x[0]_1 - s_b_1_1_1_t_1 <= -3
 GC19: b_1_1_1_t_1 = 0 -> - x[0]_1 - s_b_1_1_1_t_1 >= -2.9999
 GC20: b_1_1_1_t_2 = 1 -> - x[0]_2 - s_b_1_1_1_t_2 <= -3
 GC21: b_1_1_1_t_2 = 0 -> - x[0]_2 - s_b_1_1_1_t_2 >= -2.9999
 GC22: b_1_1_1_t_3 = 1 -> - x[0]_3 - s_b_1_1_1_t_3 <= -3
 GC23: b_1_1_1_t_3 = 0 -> - x[0]_3 - s_b_1_1_1_t_3 >= -2.9999
 GC24: b_1_1_1_t_4 = 1 -> - x[0]_4 - s_b_1_1_1_t_4 <= -3
 GC25: b_1_1_1_t_4 = 0 -> - x[0]_4 - s_b_1_1_1_t_4 >= -2.9999
 GC26: b_1_1_1_t_5 = 1 -> - x[0]_5 - s_b_1_1_1_t_5 <= -3
 GC27: b_1_1_1_t_5 = 0 -> - x[0]_5 - s_b_1_1_1_t_5 >= -2.9999
 GC28: b_1_1_1_t_6 = 1 -> - x[0]_6 - s_b_1_1_1_t_6 <= -3
 GC29: b_1_1_1_t_6 = 0 -> - x[0]_6 - s_b_1_1_1_t_6 >= -2.9999
 GC30: b_1_1_1_t_7 = 1 -> - x[0]_7 - s_b_1_1_1_t_7 <= -3
 GC31: b_1_1_1_t_7 = 0 -> - x[0]_7 - s_b_1_1_1_t_7 >= -2.9999
 GC32: b_1_1_1_t_8 = 1 -> - x[0]_8 - s_b_1_1_1_t_8 <= -3
 GC33: b_1_1_1_t_8 = 0 -> - x[0]_8 - s_b_1_1_1_t_8 >= -2.9999
 GC34: b_1_1_1_t_9 = 1 -> - x[0]_9 - s_b_1_1_1_t_9 <= -3
 GC35: b_1_1_1_t_9 = 0 -> - x[0]_9 - s_b_1_1_1_t_9 >= -2.9999
 GC36: b_1_1_1_t_10 = 1 -> - x[0]_10 - s_b_1_1_1_t_10 <= -3
 GC37: b_1_1_1_t_10 = 0 -> - x[0]_10 - s_b_1_1_1_t_10 >= -2.9999
 GC38: b_1_1_1_t_11 = 1 -> - x[0]_11 - s_b_1_1_1_t_11 <= -3
 GC39: b_1_1_1_t_11 = 0 -> - x[0]_11 - s_b_1_1_1_t_11 >= -2.9999
 GC40: b_1_1_1_t_12 = 1 -> - x[0]_12 - s_b_1_1_1_t_12 <= -3
 GC41: b_1_1_1_t_12 = 0 -> - x[0]_12 - s_b_1_1_1_t_12 >= -2.9999
 GC42: b_1_1_1_t_13 = 1 -> - x[0]_13 - s_b_1_1_1_t_13 <= -3
 GC43: b_1_1_1_t_13 = 0 -> - x[0]_13 - s_b_1_1_1_t_13 >= -2.9999
 GC44: b_1_1_1_t_14 = 1 -> - x[0]_14 - s_b_1_1_1_t_14 <= -3
 GC45: b_1_1_1_t_14 = 0 -> - x[0]_14 - s_b_1_1_1_t_14 >= -2.9999
 GC46: b_1_1_1_t_15 = 1 -> - x[0]_15 - s_b_1_1_1_t_15 <= -3
 GC47: b_1_1_1_t_15 = 0 -> - x[0]_15 - s_b_1_1_1_t_15 >= -2.9999
 GC64: b_1_2_1_t_0 = 1 -> x[0]_0 - s_b_1_2_1_t_0 <= -0
 GC65: b_1_2_1_t_0 = 0 -> x[0]_0 - s_b_1_2_1_t_0 >= 0.0001
 GC66: b_1_2_1_t_1 = 1 -> x[0]_1 - s_b_1_2_1_t_1 <= -0
 GC67: b_1_2_1_t_1 = 0 -> x[0]_1 - s_b_1_2_1_t_1 >= 0.0001
 GC68: b_1_2_1_t_2 = 1 -> x[0]_2 - s_b_1_2_1_t_2 <= -0
 GC69: b_1_2_1_t_2 = 0 -> x[0]_2 - s_b_1_2_1_t_2 >= 0.0001
 GC70: b_1_2_1_t_3 = 1 -> x[0]_3 - s_b_1_2_1_t_3 <= -0
 GC71: b_1_2_1_t_3 = 0 -> x[0]_3 - s_b_1_2_1_t_3 >= 0.0001
 GC72: b_1_2_1_t_4 = 1 -> x[0]_4 - s_b_1_2_1_t_4 <= -0
 GC73: b_1_2_1_t_4 = 0 -> x[0]_4 - s_b_1_2_1_t_4 >= 0.0001
 GC74: b_1_2_1_t_5 = 1 -> x[0]_5 - s_b_1_2_1_t_5 <= -0
 GC75: b_1_2_1_t_5 = 0 -> x[0]_5 - s_b_1_2_1_t_5 >= 0.0001
 GC76: b_1_2_1_t_6 = 1 -> x[0]_6 - s_b_1_2_1_t_6 <= -0
 GC77: b_1_2_1_t_6 = 0 -> x[0]_6 - s_b_1_2_1_t_6 >= 0.0001
 GC78: b_1_2_1_t_7 = 1 -> x[0]_7 - s_b_1_2_1_t_7 <= -0
 GC79: b_1_2_1_t_7 = 0 -> x[0]_7 - s_b_1_2_1_t_7 >= 0.0001
 GC80: b_1_2_1_t_8 = 1 -> x[0]_8 - s_b_1_2_1_t_8 <= -0
 GC81: b_1_2_1_t_8 = 0 -> x[0]_8 - s_b_1_2_1_t_8 >= 0.0001
 GC82: b_1_2_1_t_9 = 1 -> x[0]_9 - s_b_1_2_1_t_9 <= -0
 GC83: b_1_2_1_t_9 = 0 -> x[0]_9 - s_b_1_2_1_t_9 >= 0.0001
 GC84: b_1_2_1_t_10 = 1 -> x[0]_10 - s_b_1_2_1_t_10 <= -0
 GC85: b_1_2_1_t_10 = 0 -> x[0]_10 - s_b_1_2_1_t_10 >= 0.0001
 GC86: b_1_2_1_t_11 = 1 -> x[0]_11 - s_b_1_2_1_t_11 <= -0
 GC87: b_1_2_1_t_11 = 0 -> x[0]_11 - s_b_1_2_1_t_11 >= 0.0001
 GC88: b_1_2_1_t_12 = 1 -> x[0]_12 - s_b_1_2_1_t_12 <= -0
 GC89: b_1_2_1_t_12 = 0 -> x[0]_12 - s_b_1_2_1_t_12 >= 0.0001
 GC90: b_1_2_1_t_13 = 1 -> x[0]_13 - s_b_1_2_1_t_13 <= -0
 GC91: b_1_2_1_t_13 = 0 -> x[0]_13 - s_b_1_2_1_t_13 >= 0.0001
 GC92: b_1_2_1_t_14 = 1 -> x[0]_14 - s_b_1_2_1_t_14 <= -0
 GC93: b_1_2_1_t_14 = 0 -> x[0]_14 - s_b_1_2_1_t_14 >= 0.0001
 GC94: b_1_2_1_t_15 = 1 -> x[0]_15 - s_b_1_2_1_t_15 <= -0
 GC95: b_1_2_1_t_15 = 0 -> x[0]_15 - s_b_1_2_1_t_15 >= 0.0001
Bounds
 -100 <= x[0]_0 <= 2000
 -5 <= x[1]_0 <= 10
 -100 <= x[0]_1 <= 2000
 -5 <= x[1]_1 <= 10
 -100 <= x[0]_2 <= 2000
 -5 <= x[1]_2 <= 10
 -100 <= x[0]_3 <= 2000
 -5 <= x[1]_3 <= 10
 -100 <= x[0]_4 <= 2000
 -5 <= x[1]_4 <= 10
 -100 <= x[0]_5 <= 2000
 -5 <= x[1]_5 <= 10
 -100 <= x[0]_6 <= 2000
 -5 <= x[1]_6 <= 10
 -100 <= x[0]_7 <= 2000
 -5 <= x[1]_7 <= 10
 -100 <= x[0]_8 <= 2000
 -5 <= x[1]_8 <= 10
 -100 <= x[0]_9 <= 2000
 -5 <= x[1]_9 <= 10
 -100 <= x[0]_10 <= 2000
 -5 <= x[1]_10 <= 10
 -100 <= x[0]_11 <= 2000
 -5 <= x[1]_11 <= 10
 -100 <= x[0]_12 <= 2000
 -5 <= x[1]_12 <= 10
 -100 <= x[0]_13 <= 2000
 -5 <= x[1]_13 <= 10
 -100 <= x[0]_14 <= 2000
 -5 <= x[1]_14 <= 10
 -100 <= x[0]_15 <= 2000
 -5 <= x[1]_15 <= 10
 -1 <= u[0]_0 <= 1
 -1 <= u[0]_1 <= 1
 -1 <= u[0]_2 <= 1
 -1 <= u[0]_3 <= 1
 -1 <= u[0]_4 <= 1
 -1 <= u[0]_5 <= 1
 -1 <= u[0]_6 <= 1
 -1 <= u[0]_7 <= 1
 -1 <= u[0]_8 <= 1
 -1 <= u[0]_9 <= 1
 -1 <= u[0]_10 <= 1
 -1 <= u[0]_11 <= 1
 -1 <= u[0]_12 <= 1
 -1 <= u[0]_13 <= 1
 -1 <= u[0]_14 <= 1
 -10000 <= s_b_1_1_1_t_0 <= 10000
 a_b_1_1_1_t_0 <= 10000
 -10000 <= s_b_1_1_1_t_1 <= 10000
 a_b_1_1_1_t_1 <= 10000
 -10000 <= s_b_1_1_1_t_2 <= 10000
 a_b_1_1_1_t_2 <= 10000
 -10000 <= s_b_1_1_1_t_3 <= 10000
 a_b_1_1_1_t_3 <= 10000
 -10000 <= s_b_1_1_1_t_4 <= 10000
 a_b_1_1_1_t_4 <= 10000
 -10000 <= s_b_1_1_1_t_5 <= 10000
 a_b_1_1_1_t_5 <= 10000
 -10000 <= s_b_1_1_1_t_6 <= 10000
 a_b_1_1_1_t_6 <= 10000
 -10000 <= s_b_1_1_1_t_7 <= 10000
 a_b_1_1_1_t_7 <= 10000
 -10000 <= s_b_1_1_1_t_8 <= 10000
 a_b_1_1_1_t_8 <= 10000
 -10000 <= s_b_1_1_1_t_9 <= 10000
 a_b_1_1_1_t_9 <= 10000
 -10000 <= s_b_1_1_1_t_10 <= 10000
 a_b_1_1_1_t_10 <= 10000
 -10000 <= s_b_1_1_1_t_11 <= 10000
 a_b_1_1_1_t_11 <= 10000
 -10000 <= s_b_1_1_1_t_12 <= 10000
 a_b_1_1_1_t_12 <= 10000
 -10000 <= s_b_1_1_1_t_13 <= 10000
 a_b_1_1_1_t_13 <= 10000
 -10000 <= s_b_1_1_1_t_14 <= 10000
 a_b_1_1_1_t_14 <= 10000
 -10000 <= s_b_1_1_1_t_15 <= 10000
 a_b_1_1_1_t_15 <= 10000
 -10000 <= s_b_1_2_1_t_0 <= 10000
 a_b_1_2_1_t_0 <= 10000
 -10000 <= s_b_1_2_1_t_1 <= 10000
 a_b_1_2_1_t_1 <= 10000
 -10000 <= s_b_1_2_1_t_2 <= 10000
 a_b_1_2_1_t_2 <= 10000
 -10000 <= s_b_1_2_1_t_3 <= 10000
 a_b_1_2_1_t_3 <= 10000
 -10000 <= s_b_1_2_1_t_4 <= 10000
 a_b_1_2_1_t_4 <= 10000
 -10000 <= s_b_1_2_1_t_5 <= 10000
 a_b_1_2_1_t_5 <= 10000
 -10000 <= s_b_1_2_1_t_6 <= 10000
 a_b_1_2_1_t_6 <= 10000
 -10000 <= s_b_1_2_1_t_7 <= 10000
 a_b_1_2_1_t_7 <= 10000
 -10000 <= s_b_1_2_1_t_8 <= 10000
 a_b_1_2_1_t_8 <= 10000
 -10000 <= s_b_1_2_1_t_9 <= 10000
 a_b_1_2_1_t_9 <= 10000
 -10000 <= s_b_1_2_1_t_10 <= 10000
 a_b_1_2_1_t_10 <= 10000
 -10000 <= s_b_1_2_1_t_11 <= 10000
 a_b_1_2_1_t_11 <= 10000
 -10000 <= s_b_1_2_1_t_12 <= 10000
 a_b_1_2_1_t_12 <= 10000
 -10000 <= s_b_1_2_1_t_13 <= 10000
 a_b_1_2_1_t_13 <= 10000
 -10000 <= s_b_1_2_1_t_14 <= 10000
 a_b_1_2_1_t_14 <= 10000
 -10000 <= s_b_1_2_1_t_15 <= 10000
 a_b_1_2_1_t_15 <= 10000
Binaries
 b_1_1_1_t_0 b_1_1_1_t_1 b_1_1_1_t_2 b_1_1_1_t_3 b_1_1_1_t_4 b_1_1_1_t_5
 b_1_1_1_t_6 b_1_1_1_t_7 b_1_1_1_t_8 b_1_1_1_t_9 b_1_1_1_t_10 b_1_1_1_t_11
 b_1_1_1_t_12 b_1_1_1_t_13 b_1_1_1_t_14 b_1_1_1_t_15 b_1_2_1_t_0
 b_1_2_1_t_1 b_1_2_1_t_2 b_1_2_1_t_3 b_1_2_1_t_4 b_1_2_1_t_5 b_1_2_1_t_6
 b_1_2_1_t_7 b_1_2_1_t_8 b_1_2_1_t_9 b_1_2_1_t_10 b_1_2_1_t_11 b_1_2_1_t_12
 b_1_2_1_t_13 b_1_2_1_t_14 b_1_2_1_t_15
General Constraints
 GC0: a_b_1_1_1_t_0 = ABS ( s_b_1_1_1_t_0 )
 GC1: a_b_1_1_1_t_1 = ABS ( s_b_1_1_1_t_1 )
 GC2: a_b_1_1_1_t_2 = ABS ( s_b_1_1_1_t_2 )
 GC3: a_b_1_1_1_t_3 = ABS ( s_b_1_1_1_t_3 )
 GC4: a_b_1_1_1_t_4 = ABS ( s_b_1_1_1_t_4 )
 GC5: a_b_1_1_1_t_5 = ABS ( s_b_1_1_1_t_5 )
 GC6: a_b_1_1_1_t_6 = ABS ( s_b_1_1_1_t_6 )
 GC7: a_b_1_1_1_t_7 = ABS ( s_b_1_1_1_t_7 )
 GC8: a_b_1_1_1_t_8 = ABS ( s_b_1_1_1_t_8 )
 GC9: a_b_1_1_1_t_9 = ABS ( s_b_1_1_1_t_9 )
 GC10: a_b_1_1_1_t_10 = ABS ( s_b_1_1_1_t_10 )
 GC11: a_b_1_1_1_t_11 = ABS ( s_b_1_1_1_t_11 )
 GC12: a_b_1_1_1_t_12 = ABS ( s_b_1_1_1_t_12 )
 GC13: a_b_1_1_1_t_13 = ABS ( s_b_1_1_1_t_13 )
 GC14: a_b_1_1_1_t_14 = ABS ( s_b_1_1_1_t_14 )
 GC15: a_b_1_1_1_t_15 = ABS ( s_b_1_1_1_t_15 )
 GC48: a_b_1_2_1_t_0 = ABS ( s_b_1_2_1_t_0 )
 GC49: a_b_1_2_1_t_1 = ABS ( s_b_1_2_1_t_1 )
 GC50: a_b_1_2_1_t_2 = ABS ( s_b_1_2_1_t_2 )
 GC51: a_b_1_2_1_t_3 = ABS ( s_b_1_2_1_t_3 )
 GC52: a_b_1_2_1_t_4 = ABS ( s_b_1_2_1_t_4 )
 GC53: a_b_1_2_1_t_5 = ABS ( s_b_1_2_1_t_5 )
 GC54: a_b_1_2_1_t_6 = ABS ( s_b_1_2_1_t_6 )
 GC55: a_b_1_2_1_t_7 = ABS ( s_b_1_2_1_t_7 )
 GC56: a_b_1_2_1_t_8 = ABS ( s_b_1_2_1_t_8 )
 GC57: a_b_1_2_1_t_9 = ABS ( s_b_1_2_1_t_9 )
 GC58: a_b_1_2_1_t_10 = ABS ( s_b_1_2_1_t_10 )
 GC59: a_b_1_2_1_t_11 = ABS ( s_b_1_2_1_t_11 )
 GC60: a_b_1_2_1_t_12 = ABS ( s_b_1_2_1_t_12 )
 GC61: a_b_1_2_1_t_13 = ABS ( s_b_1_2_1_t_13 )
 GC62: a_b_1_2_1_t_14 = ABS ( s_b_1_2_1_t_14 )
 GC63: a_b_1_2_1_t_15 = ABS ( s_b_1_2_1_t_15 )
End
